\ LP format - for model browsing. Use MPS format to capture full model detail.
Minimize
  1e+100 x[0,0] + 2 x[0,1] + 3 x[0,2] + x[0,3] + 4 x[0,4] + 2 x[0,5]
   + 2 x[1,0] + 1e+100 x[1,1] + 2 x[1,2] + 3 x[1,3] + 5 x[1,4] + 4 x[1,5]
   + 3 x[2,0] + 2 x[2,1] + 1e+100 x[2,2] + 2 x[2,3] + 4 x[2,4] + 2 x[2,5]
   + x[3,0] + 3 x[3,1] + 2 x[3,2] + 1e+100 x[3,3] + 2 x[3,4] + 2 x[3,5]
   + 4 x[4,0] + 5 x[4,1] + 4 x[4,2] + 2 x[4,3] + 1e+100 x[4,4] + 3 x[4,5]
   + 2 x[5,0] + 4 x[5,1] + 2 x[5,2] + 2 x[5,3] + 3 x[5,4] + 1e+100 x[5,5]
Subject To
 R0: x[0,0] + x[0,1] + x[0,2] + x[0,3] + x[0,4] + x[0,5] = 1
 R1: x[1,0] + x[1,1] + x[1,2] + x[1,3] + x[1,4] + x[1,5] = 1
 R2: x[2,0] + x[2,1] + x[2,2] + x[2,3] + x[2,4] + x[2,5] = 1
 R3: x[3,0] + x[3,1] + x[3,2] + x[3,3] + x[3,4] + x[3,5] = 1
 R4: x[4,0] + x[4,1] + x[4,2] + x[4,3] + x[4,4] + x[4,5] = 1
 R5: x[5,0] + x[5,1] + x[5,2] + x[5,3] + x[5,4] + x[5,5] = 1
 R6: x[0,0] + x[1,0] + x[2,0] + x[3,0] + x[4,0] + x[5,0] = 1
 R7: x[0,1] + x[1,1] + x[2,1] + x[3,1] + x[4,1] + x[5,1] = 1
 R8: x[0,2] + x[1,2] + x[2,2] + x[3,2] + x[4,2] + x[5,2] = 1
 R9: x[0,3] + x[1,3] + x[2,3] + x[3,3] + x[4,3] + x[5,3] = 1
 R10: x[0,4] + x[1,4] + x[2,4] + x[3,4] + x[4,4] + x[5,4] = 1
 R11: x[0,5] + x[1,5] + x[2,5] + x[3,5] + x[4,5] + x[5,5] = 1
 R12: - 6 x[0,1] - t[0] + t[1] >= -5
 R13: - 6 x[0,2] - t[0] + t[2] >= -5
 R14: - 6 x[0,3] - t[0] + t[3] >= -5
 R15: - 6 x[0,4] - t[0] + t[4] >= -5
 R16: - 6 x[0,5] - t[0] + t[5] >= -5
 R17: - 6 x[1,2] - t[1] + t[2] >= -5
 R18: - 6 x[1,3] - t[1] + t[3] >= -5
 R19: - 6 x[1,4] - t[1] + t[4] >= -5
 R20: - 6 x[1,5] - t[1] + t[5] >= -5
 R21: - 6 x[2,1] + t[1] - t[2] >= -5
 R22: - 6 x[2,3] - t[2] + t[3] >= -5
 R23: - 6 x[2,4] - t[2] + t[4] >= -5
 R24: - 6 x[2,5] - t[2] + t[5] >= -5
 R25: - 6 x[3,1] + t[1] - t[3] >= -5
 R26: - 6 x[3,2] + t[2] - t[3] >= -5
 R27: - 6 x[3,4] - t[3] + t[4] >= -5
 R28: - 6 x[3,5] - t[3] + t[5] >= -5
 R29: - 6 x[4,1] + t[1] - t[4] >= -5
 R30: - 6 x[4,2] + t[2] - t[4] >= -5
 R31: - 6 x[4,3] + t[3] - t[4] >= -5
 R32: - 6 x[4,5] - t[4] + t[5] >= -5
 R33: - 6 x[5,1] + t[1] - t[5] >= -5
 R34: - 6 x[5,2] + t[2] - t[5] >= -5
 R35: - 6 x[5,3] + t[3] - t[5] >= -5
 R36: - 6 x[5,4] + t[4] - t[5] >= -5
 R37: t[0] = 0
Bounds
Binaries
 x[0,0] x[0,1] x[0,2] x[0,3] x[0,4] x[0,5] x[1,0] x[1,1] x[1,2] x[1,3]
 x[1,4] x[1,5] x[2,0] x[2,1] x[2,2] x[2,3] x[2,4] x[2,5] x[3,0] x[3,1]
 x[3,2] x[3,3] x[3,4] x[3,5] x[4,0] x[4,1] x[4,2] x[4,3] x[4,4] x[4,5]
 x[5,0] x[5,1] x[5,2] x[5,3] x[5,4] x[5,5]
Generals
 t[0] t[1] t[2] t[3] t[4] t[5]
End
